examples/handcrafted/lrat-fig2.dimacs
c From Figure 2 in
c Efficient Certified RAT Verification
c https://www.cs.utexas.edu/~marijn/publications/lrat.pdf
p cnf 4 8
 1  2 -3 0
-1 -2  3 0
 2  3 -4 0
-2 -3  4 0
-1 -3 -4 0
 1  3  4 0
-1  2  4 0
 1 -2 -4 0