examples/handcrafted/lrat-fig2.lrat
 9 1 0 -2 6 8 -5 1 8 -7 6 1 0
 9                  d 8 6 1 0
10 2 0              9 7 5 3 0
10                    d 7 3 0
11   0           9 10 2 4 5 0